(set-logic ALL)
(declare-fun var0 () String)
(assert (str.in_re var0 (re.++ (re.union (re.+ (str.to_re "00")) (re.+ (str.to_re "1"))) (re.++ (re.* (re.+ (str.to_re "22"))) (re.++ (re.union (re.+ (str.to_re "3")) (re.+ (str.to_re "4"))) (re.++ (re.union (re.union (str.to_re "555") (str.to_re "666")) (re.union (str.to_re "77") (str.to_re "8"))) (re.++ (re.+ (re.union (str.to_re "999") (str.to_re "aa"))) (re.++ (re.* (re.* (str.to_re "bb"))) (re.++ (re.* (re.+ (str.to_re "ccc"))) (re.++ (re.union (re.union (str.to_re "ddd") (str.to_re "eee")) (re.+ (str.to_re "fff"))) (re.+ (re.* (str.to_re "g")))))))))))))
(check-sat)